nNurses = 182;
nHours = 29;
minHours = 5;
maxHours = 18;
maxConsec = 17;
maxPresence = 22;
demand = [17, 18, 19, 14, 14, 14, 18, 16, 16, 17, 18, 14, 9, 12, 10, 7, 10, 10, 13, 16, 18, 22, 23, 21, 17, 15, 19, 19, 16];
